\ This file has been generated by DOcplex
\ ENCODING=ISO-8859-1
\Problem name: Bakery_problem

Maximize
 obj: 10 Pounds_of_Bagels + 12 Pounds_of_Muffins
Subject To
 c1: 5 Pounds_of_Bagels + 4 Pounds_of_Muffins <= 50
 c2: 2 Pounds_of_Bagels + 4 Pounds_of_Muffins <= 30
 c3: Pounds_of_Bagels + 2 Pounds_of_Muffins <= 20

Bounds
End
